c "838688.clq"
p edge 251 3760
e 1 17
e 1 18
e 1 19
e 1 20
e 1 21
e 1 23
e 1 24
e 1 25
e 1 26
e 1 27
e 1 28
e 1 30
e 1 31
e 1 33
e 1 34
e 1 38
e 1 39
e 1 46
e 1 48
e 1 49
e 1 50
e 1 60
e 1 68
e 1 75
e 1 77
e 1 78
e 1 79
e 1 86
e 1 89
e 1 110
e 1 111
e 1 114
e 1 117
e 1 120
e 1 126
e 1 129
e 1 131
e 1 138
e 1 144
e 1 167
e 1 170
e 1 188
e 1 191
e 1 194
e 1 203
e 1 221
e 1 235
e 1 239
e 1 243
e 2 17
e 2 18
e 2 19
e 2 20
e 2 23
e 2 27
e 2 28
e 2 29
e 2 30
e 2 35
e 2 37
e 2 46
e 2 76
e 2 81
e 2 89
e 2 91
e 2 96
e 2 101
e 2 108
e 2 126
e 2 148
e 2 150
e 2 152
e 2 168
e 2 189
e 2 193
e 2 212
e 2 226
e 2 230
e 2 234
e 2 251
e 3 17
e 3 18
e 3 19
e 3 20
e 3 21
e 3 22
e 3 23
e 3 25
e 3 27
e 3 28
e 3 30
e 3 31
e 3 35
e 3 39
e 3 43
e 3 46
e 3 50
e 3 62
e 3 66
e 3 74
e 3 80
e 3 81
e 3 87
e 3 109
e 3 115
e 3 116
e 3 124
e 3 136
e 3 141
e 3 158
e 3 161
e 3 167
e 3 174
e 3 177
e 3 192
e 3 218
e 3 222
e 3 236
e 3 247
e 4 17
e 4 20
e 4 21
e 4 23
e 4 24
e 4 29
e 4 33
e 4 35
e 4 48
e 4 49
e 4 55
e 4 63
e 4 65
e 4 75
e 4 88
e 4 104
e 4 107
e 4 109
e 4 111
e 4 115
e 4 119
e 4 120
e 4 126
e 4 127
e 4 145
e 4 151
e 4 153
e 4 157
e 4 160
e 4 169
e 4 175
e 4 185
e 4 216
e 4 248
e 5 17
e 5 18
e 5 19
e 5 21
e 5 22
e 5 24
e 5 26
e 5 30
e 5 31
e 5 33
e 5 34
e 5 40
e 5 46
e 5 48
e 5 50
e 5 51
e 5 56
e 5 64
e 5 80
e 5 94
e 5 100
e 5 103
e 5 119
e 5 143
e 5 147
e 5 156
e 5 163
e 5 180
e 5 185
e 5 190
e 5 192
e 5 199
e 5 226
e 5 251
e 6 17
e 6 18
e 6 19
e 6 21
e 6 22
e 6 24
e 6 33
e 6 34
e 6 41
e 6 43
e 6 47
e 6 50
e 6 51
e 6 69
e 6 73
e 6 78
e 6 80
e 6 99
e 6 128
e 6 131
e 6 142
e 6 144
e 6 145
e 6 146
e 6 151
e 6 160
e 6 175
e 6 207
e 6 208
e 6 214
e 6 236
e 6 241
e 6 244
e 7 17
e 7 18
e 7 19
e 7 20
e 7 21
e 7 22
e 7 23
e 7 26
e 7 27
e 7 28
e 7 29
e 7 30
e 7 32
e 7 34
e 7 35
e 7 37
e 7 44
e 7 45
e 7 47
e 7 54
e 7 55
e 7 58
e 7 62
e 7 65
e 7 72
e 7 73
e 7 75
e 7 83
e 7 89
e 7 107
e 7 111
e 7 112
e 7 119
e 7 125
e 7 126
e 7 135
e 7 139
e 7 140
e 7 141
e 7 143
e 7 147
e 7 156
e 7 162
e 7 169
e 7 170
e 7 173
e 7 177
e 7 189
e 7 190
e 7 198
e 7 203
e 7 213
e 7 217
e 7 220
e 7 229
e 7 238
e 8 17
e 8 18
e 8 19
e 8 20
e 8 23
e 8 26
e 8 28
e 8 33
e 8 35
e 8 40
e 8 42
e 8 44
e 8 47
e 8 55
e 8 65
e 8 76
e 8 77
e 8 84
e 8 85
e 8 104
e 8 112
e 8 114
e 8 148
e 8 149
e 8 174
e 8 188
e 8 220
e 9 17
e 9 18
e 9 20
e 9 21
e 9 22
e 9 26
e 9 28
e 9 36
e 9 38
e 9 46
e 9 49
e 9 51
e 9 56
e 9 104
e 9 116
e 9 118
e 9 136
e 9 143
e 9 155
e 9 159
e 9 166
e 9 167
e 9 174
e 9 195
e 9 201
e 9 202
e 9 204
e 10 17
e 10 18
e 10 19
e 10 20
e 10 21
e 10 22
e 10 23
e 10 24
e 10 25
e 10 26
e 10 27
e 10 28
e 10 29
e 10 31
e 10 36
e 10 37
e 10 41
e 10 42
e 10 45
e 10 49
e 10 52
e 10 57
e 10 69
e 10 70
e 10 76
e 10 77
e 10 79
e 10 84
e 10 94
e 10 97
e 10 105
e 10 136
e 10 140
e 10 186
e 10 229
e 10 236
e 10 237
e 10 241
e 10 250
e 11 17
e 11 18
e 11 19
e 11 20
e 11 22
e 11 23
e 11 25
e 11 27
e 11 31
e 11 33
e 11 34
e 11 43
e 11 44
e 11 52
e 11 59
e 11 61
e 11 64
e 11 65
e 11 69
e 11 71
e 11 72
e 11 73
e 11 76
e 11 78
e 11 80
e 11 82
e 11 93
e 11 96
e 11 97
e 11 102
e 11 107
e 11 123
e 11 128
e 11 129
e 11 132
e 11 149
e 11 152
e 11 160
e 11 161
e 11 162
e 11 167
e 11 169
e 11 173
e 11 174
e 11 198
e 11 204
e 11 224
e 11 229
e 11 247
e 11 250
e 11 251
e 12 17
e 12 18
e 12 19
e 12 20
e 12 21
e 12 22
e 12 23
e 12 25
e 12 27
e 12 29
e 12 30
e 12 31
e 12 32
e 12 33
e 12 41
e 12 42
e 12 46
e 12 54
e 12 61
e 12 76
e 12 83
e 12 87
e 12 88
e 12 97
e 12 100
e 12 113
e 12 121
e 12 123
e 12 125
e 12 132
e 12 137
e 12 143
e 12 145
e 12 149
e 12 151
e 12 161
e 12 176
e 12 181
e 12 187
e 12 196
e 12 226
e 12 228
e 12 230
e 12 233
e 12 234
e 12 237
e 12 240
e 13 17
e 13 18
e 13 19
e 13 20
e 13 21
e 13 24
e 13 25
e 13 26
e 13 28
e 13 29
e 13 32
e 13 33
e 13 37
e 13 39
e 13 42
e 13 49
e 13 53
e 13 55
e 13 56
e 13 61
e 13 78
e 13 80
e 13 84
e 13 86
e 13 87
e 13 90
e 13 92
e 13 93
e 13 96
e 13 98
e 13 99
e 13 100
e 13 109
e 13 113
e 13 118
e 13 131
e 13 132
e 13 133
e 13 138
e 13 141
e 13 146
e 13 150
e 13 156
e 13 157
e 13 159
e 13 160
e 13 161
e 13 168
e 13 177
e 13 194
e 13 197
e 13 205
e 13 206
e 13 208
e 13 214
e 13 216
e 13 244
e 14 17
e 14 18
e 14 19
e 14 20
e 14 21
e 14 22
e 14 24
e 14 25
e 14 27
e 14 31
e 14 32
e 14 35
e 14 36
e 14 41
e 14 44
e 14 50
e 14 56
e 14 65
e 14 75
e 14 82
e 14 89
e 14 97
e 14 107
e 14 111
e 14 113
e 14 116
e 14 119
e 14 120
e 14 127
e 14 142
e 14 148
e 14 177
e 14 185
e 14 191
e 14 223
e 15 17
e 15 18
e 15 19
e 15 20
e 15 22
e 15 23
e 15 24
e 15 25
e 15 27
e 15 32
e 15 38
e 15 42
e 15 43
e 15 45
e 15 46
e 15 48
e 15 50
e 15 54
e 15 61
e 15 63
e 15 65
e 15 70
e 15 80
e 15 88
e 15 97
e 15 101
e 15 113
e 15 120
e 15 123
e 15 125
e 15 133
e 15 135
e 15 156
e 15 157
e 15 159
e 15 166
e 15 169
e 15 175
e 15 184
e 15 197
e 15 224
e 15 239
e 15 241
e 15 251
e 16 17
e 16 18
e 16 19
e 16 21
e 16 22
e 16 24
e 16 26
e 16 29
e 16 30
e 16 32
e 16 33
e 16 37
e 16 40
e 16 44
e 16 54
e 16 57
e 16 58
e 16 61
e 16 63
e 16 68
e 16 70
e 16 74
e 16 86
e 16 101
e 16 137
e 16 157
e 16 163
e 16 186
e 16 188
e 16 221
e 16 245
e 17 18
e 17 19
e 17 20
e 17 21
e 17 22
e 17 23
e 17 24
e 17 25
e 17 27
e 17 29
e 17 32
e 17 36
e 17 38
e 17 39
e 17 40
e 17 41
e 17 42
e 17 43
e 17 44
e 17 45
e 17 47
e 17 50
e 17 54
e 17 55
e 17 66
e 17 70
e 17 71
e 17 74
e 17 75
e 17 82
e 17 85
e 17 86
e 17 87
e 17 88
e 17 96
e 17 99
e 17 101
e 17 103
e 17 104
e 17 106
e 17 108
e 17 111
e 17 112
e 17 121
e 17 122
e 17 123
e 17 129
e 17 130
e 17 135
e 17 147
e 17 157
e 17 162
e 17 167
e 17 169
e 17 173
e 17 177
e 17 180
e 17 181
e 17 182
e 17 184
e 17 190
e 17 191
e 17 193
e 17 203
e 17 204
e 17 205
e 17 207
e 17 210
e 17 211
e 17 222
e 17 223
e 17 226
e 17 231
e 17 242
e 17 243
e 17 244
e 18 19
e 18 20
e 18 21
e 18 22
e 18 23
e 18 24
e 18 25
e 18 26
e 18 27
e 18 29
e 18 30
e 18 31
e 18 32
e 18 33
e 18 34
e 18 35
e 18 36
e 18 38
e 18 39
e 18 41
e 18 42
e 18 44
e 18 47
e 18 48
e 18 50
e 18 51
e 18 56
e 18 59
e 18 63
e 18 64
e 18 66
e 18 69
e 18 74
e 18 80
e 18 81
e 18 87
e 18 88
e 18 92
e 18 97
e 18 100
e 18 105
e 18 107
e 18 109
e 18 110
e 18 113
e 18 115
e 18 121
e 18 122
e 18 131
e 18 133
e 18 134
e 18 141
e 18 143
e 18 152
e 18 153
e 18 154
e 18 159
e 18 162
e 18 163
e 18 164
e 18 166
e 18 171
e 18 172
e 18 181
e 18 187
e 18 192
e 18 195
e 18 201
e 18 208
e 18 213
e 18 214
e 18 218
e 18 227
e 18 228
e 18 235
e 18 238
e 18 239
e 18 244
e 18 246
e 18 247
e 18 250
e 19 20
e 19 21
e 19 22
e 19 23
e 19 24
e 19 25
e 19 26
e 19 27
e 19 28
e 19 29
e 19 30
e 19 31
e 19 32
e 19 33
e 19 34
e 19 36
e 19 37
e 19 38
e 19 40
e 19 42
e 19 43
e 19 44
e 19 45
e 19 46
e 19 48
e 19 49
e 19 51
e 19 52
e 19 53
e 19 54
e 19 55
e 19 58
e 19 59
e 19 60
e 19 61
e 19 65
e 19 67
e 19 68
e 19 71
e 19 73
e 19 74
e 19 77
e 19 78
e 19 79
e 19 80
e 19 82
e 19 83
e 19 84
e 19 86
e 19 90
e 19 91
e 19 92
e 19 93
e 19 94
e 19 95
e 19 100
e 19 103
e 19 104
e 19 106
e 19 108
e 19 109
e 19 117
e 19 118
e 19 120
e 19 122
e 19 124
e 19 128
e 19 132
e 19 135
e 19 137
e 19 140
e 19 143
e 19 146
e 19 148
e 19 150
e 19 159
e 19 162
e 19 165
e 19 171
e 19 172
e 19 176
e 19 178
e 19 180
e 19 181
e 19 185
e 19 199
e 19 201
e 19 204
e 19 206
e 19 219
e 19 220
e 19 237
e 19 243
e 19 245
e 19 248
e 19 250
e 20 21
e 20 22
e 20 23
e 20 24
e 20 25
e 20 26
e 20 27
e 20 28
e 20 29
e 20 30
e 20 31
e 20 34
e 20 35
e 20 37
e 20 38
e 20 39
e 20 40
e 20 41
e 20 43
e 20 45
e 20 47
e 20 54
e 20 57
e 20 61
e 20 62
e 20 63
e 20 69
e 20 71
e 20 76
e 20 82
e 20 85
e 20 95
e 20 98
e 20 108
e 20 122
e 20 129
e 20 138
e 20 144
e 20 150
e 20 152
e 20 163
e 20 168
e 20 180
e 20 186
e 20 193
e 20 198
e 20 199
e 20 202
e 20 204
e 20 205
e 20 210
e 20 213
e 20 215
e 20 216
e 20 241
e 20 248
e 20 249
e 21 22
e 21 23
e 21 24
e 21 25
e 21 26
e 21 28
e 21 30
e 21 32
e 21 34
e 21 35
e 21 36
e 21 37
e 21 40
e 21 41
e 21 42
e 21 44
e 21 45
e 21 46
e 21 47
e 21 48
e 21 49
e 21 50
e 21 52
e 21 53
e 21 54
e 21 62
e 21 65
e 21 67
e 21 69
e 21 83
e 21 91
e 21 94
e 21 98
e 21 99
e 21 101
e 21 106
e 21 108
e 21 113
e 21 117
e 21 124
e 21 125
e 21 127
e 21 134
e 21 139
e 21 149
e 21 151
e 21 152
e 21 153
e 21 166
e 21 174
e 21 178
e 21 196
e 21 198
e 21 202
e 21 216
e 21 227
e 21 231
e 21 236
e 21 246
e 22 23
e 22 24
e 22 25
e 22 26
e 22 28
e 22 30
e 22 31
e 22 34
e 22 35
e 22 37
e 22 38
e 22 41
e 22 42
e 22 45
e 22 46
e 22 52
e 22 57
e 22 61
e 22 62
e 22 65
e 22 66
e 22 72
e 22 74
e 22 76
e 22 77
e 22 79
e 22 81
e 22 82
e 22 84
e 22 88
e 22 91
e 22 96
e 22 101
e 22 102
e 22 103
e 22 104
e 22 106
e 22 107
e 22 110
e 22 113
e 22 117
e 22 122
e 22 123
e 22 126
e 22 129
e 22 139
e 22 141
e 22 146
e 22 156
e 22 164
e 22 165
e 22 199
e 22 202
e 22 203
e 22 205
e 22 207
e 22 211
e 22 212
e 22 214
e 22 220
e 22 231
e 22 235
e 23 24
e 23 25
e 23 26
e 23 28
e 23 29
e 23 30
e 23 31
e 23 32
e 23 36
e 23 38
e 23 39
e 23 40
e 23 41
e 23 42
e 23 47
e 23 49
e 23 51
e 23 52
e 23 54
e 23 56
e 23 57
e 23 58
e 23 59
e 23 61
e 23 62
e 23 63
e 23 68
e 23 73
e 23 78
e 23 80
e 23 83
e 23 84
e 23 86
e 23 88
e 23 89
e 23 90
e 23 91
e 23 98
e 23 101
e 23 102
e 23 105
e 23 107
e 23 110
e 23 114
e 23 118
e 23 123
e 23 126
e 23 133
e 23 134
e 23 139
e 23 141
e 23 146
e 23 149
e 23 152
e 23 166
e 23 170
e 23 174
e 23 175
e 23 179
e 23 182
e 23 183
e 23 190
e 23 191
e 23 200
e 23 203
e 23 204
e 23 207
e 23 208
e 23 212
e 23 214
e 23 222
e 23 231
e 23 233
e 23 235
e 23 241
e 23 243
e 23 246
e 23 250
e 23 251
e 24 25
e 24 26
e 24 27
e 24 31
e 24 32
e 24 34
e 24 35
e 24 37
e 24 39
e 24 40
e 24 43
e 24 44
e 24 49
e 24 50
e 24 51
e 24 53
e 24 55
e 24 57
e 24 58
e 24 60
e 24 62
e 24 63
e 24 64
e 24 65
e 24 70
e 24 72
e 24 74
e 24 76
e 24 78
e 24 79
e 24 84
e 24 85
e 24 90
e 24 91
e 24 92
e 24 95
e 24 97
e 24 98
e 24 99
e 24 103
e 24 105
e 24 107
e 24 109
e 24 114
e 24 120
e 24 124
e 24 128
e 24 129
e 24 131
e 24 132
e 24 134
e 24 135
e 24 141
e 24 144
e 24 148
e 24 151
e 24 165
e 24 169
e 24 194
e 24 200
e 24 201
e 24 205
e 24 216
e 24 218
e 24 227
e 24 232
e 24 238
e 24 250
e 25 26
e 25 27
e 25 28
e 25 29
e 25 30
e 25 31
e 25 32
e 25 33
e 25 35
e 25 36
e 25 37
e 25 39
e 25 40
e 25 42
e 25 43
e 25 44
e 25 45
e 25 46
e 25 49
e 25 51
e 25 52
e 25 53
e 25 55
e 25 57
e 25 58
e 25 59
e 25 60
e 25 65
e 25 66
e 25 67
e 25 68
e 25 69
e 25 71
e 25 72
e 25 73
e 25 74
e 25 78
e 25 79
e 25 81
e 25 88
e 25 89
e 25 92
e 25 96
e 25 100
e 25 103
e 25 105
e 25 106
e 25 108
e 25 110
e 25 118
e 25 123
e 25 140
e 25 141
e 25 142
e 25 146
e 25 147
e 25 148
e 25 151
e 25 158
e 25 159
e 25 168
e 25 170
e 25 186
e 25 194
e 25 195
e 25 210
e 25 211
e 25 215
e 25 224
e 25 232
e 25 236
e 25 238
e 26 27
e 26 28
e 26 29
e 26 30
e 26 33
e 26 34
e 26 36
e 26 38
e 26 39
e 26 41
e 26 42
e 26 45
e 26 46
e 26 50
e 26 51
e 26 52
e 26 53
e 26 57
e 26 59
e 26 62
e 26 63
e 26 67
e 26 81
e 26 83
e 26 90
e 26 91
e 26 92
e 26 100
e 26 105
e 26 111
e 26 117
e 26 120
e 26 129
e 26 130
e 26 131
e 26 142
e 26 158
e 26 160
e 26 162
e 26 165
e 26 176
e 26 177
e 26 179
e 26 182
e 26 189
e 26 190
e 26 191
e 26 205
e 26 207
e 26 211
e 26 215
e 26 220
e 26 222
e 26 227
e 26 228
e 26 232
e 26 238
e 27 28
e 27 29
e 27 31
e 27 32
e 27 33
e 27 34
e 27 35
e 27 37
e 27 38
e 27 39
e 27 40
e 27 41
e 27 43
e 27 44
e 27 47
e 27 48
e 27 49
e 27 50
e 27 52
e 27 53
e 27 54
e 27 55
e 27 59
e 27 60
e 27 69
e 27 77
e 27 79
e 27 80
e 27 82
e 27 83
e 27 84
e 27 87
e 27 88
e 27 91
e 27 92
e 27 93
e 27 96
e 27 97
e 27 98
e 27 99
e 27 102
e 27 106
e 27 113
e 27 115
e 27 126
e 27 127
e 27 140
e 27 149
e 27 150
e 27 152
e 27 153
e 27 155
e 27 157
e 27 158
e 27 159
e 27 161
e 27 164
e 27 166
e 27 167
e 27 171
e 27 173
e 27 174
e 27 178
e 27 180
e 27 188
e 27 196
e 27 200
e 27 205
e 27 206
e 27 208
e 27 209
e 27 212
e 27 214
e 27 228
e 27 229
e 27 235
e 27 236
e 27 240
e 27 246
e 27 247
e 28 29
e 28 30
e 28 31
e 28 35
e 28 36
e 28 37
e 28 39
e 28 41
e 28 42
e 28 48
e 28 49
e 28 52
e 28 53
e 28 56
e 28 57
e 28 58
e 28 60
e 28 63
e 28 69
e 28 70
e 28 72
e 28 77
e 28 86
e 28 96
e 28 102
e 28 103
e 28 105
e 28 107
e 28 111
e 28 115
e 28 119
e 28 121
e 28 122
e 28 131
e 28 137
e 28 138
e 28 145
e 28 150
e 28 151
e 28 158
e 28 160
e 28 166
e 28 178
e 28 179
e 28 201
e 28 219
e 28 223
e 28 249
e 29 32
e 29 34
e 29 35
e 29 37
e 29 38
e 29 39
e 29 40
e 29 41
e 29 45
e 29 46
e 29 48
e 29 49
e 29 51
e 29 53
e 29 59
e 29 60
e 29 62
e 29 63
e 29 64
e 29 67
e 29 69
e 29 72
e 29 74
e 29 80
e 29 84
e 29 86
e 29 89
e 29 91
e 29 93
e 29 94
e 29 99
e 29 102
e 29 103
e 29 104
e 29 109
e 29 111
e 29 112
e 29 115
e 29 118
e 29 127
e 29 135
e 29 137
e 29 143
e 29 148
e 29 162
e 29 163
e 29 171
e 29 176
e 29 181
e 29 184
e 29 185
e 29 195
e 29 199
e 29 210
e 29 224
e 29 232
e 29 238
e 29 241
e 29 249
e 30 32
e 30 33
e 30 35
e 30 38
e 30 40
e 30 41
e 30 43
e 30 44
e 30 50
e 30 52
e 30 53
e 30 56
e 30 58
e 30 64
e 30 67
e 30 71
e 30 72
e 30 75
e 30 79
e 30 81
e 30 85
e 30 91
e 30 98
e 30 106
e 30 110
e 30 120
e 30 121
e 30 124
e 30 125
e 30 130
e 30 133
e 30 134
e 30 137
e 30 141
e 30 145
e 30 151
e 30 161
e 30 165
e 30 176
e 30 182
e 30 183
e 30 192
e 30 229
e 30 235
e 31 34
e 31 36
e 31 43
e 31 44
e 31 47
e 31 51
e 31 54
e 31 60
e 31 61
e 31 62
e 31 71
e 31 72
e 31 77
e 31 83
e 31 87
e 31 91
e 31 92
e 31 97
e 31 99
e 31 109
e 31 112
e 31 121
e 31 137
e 31 142
e 31 145
e 31 154
e 31 155
e 31 171
e 31 175
e 31 196
e 31 209
e 31 213
e 31 214
e 31 235
e 31 247
e 31 251
e 32 33
e 32 36
e 32 40
e 32 41
e 32 45
e 32 46
e 32 47
e 32 51
e 32 57
e 32 59
e 32 61
e 32 64
e 32 67
e 32 68
e 32 69
e 32 72
e 32 75
e 32 78
e 32 79
e 32 83
e 32 89
e 32 92
e 32 93
e 32 99
e 32 100
e 32 101
e 32 103
e 32 104
e 32 106
e 32 111
e 32 112
e 32 116
e 32 123
e 32 124
e 32 127
e 32 129
e 32 141
e 32 142
e 32 144
e 32 146
e 32 151
e 32 159
e 32 164
e 32 165
e 32 166
e 32 171
e 32 176
e 32 180
e 32 188
e 32 223
e 32 228
e 32 231
e 32 233
e 32 246
e 33 34
e 33 36
e 33 37
e 33 38
e 33 40
e 33 42
e 33 43
e 33 45
e 33 47
e 33 48
e 33 50
e 33 52
e 33 55
e 33 57
e 33 59
e 33 60
e 33 66
e 33 67
e 33 68
e 33 72
e 33 73
e 33 76
e 33 79
e 33 83
e 33 85
e 33 86
e 33 93
e 33 95
e 33 98
e 33 101
e 33 106
e 33 110
e 33 114
e 33 117
e 33 122
e 33 125
e 33 126
e 33 129
e 33 130
e 33 134
e 33 136
e 33 137
e 33 138
e 33 147
e 33 150
e 33 154
e 33 157
e 33 161
e 33 164
e 33 166
e 33 169
e 33 172
e 33 176
e 33 194
e 33 199
e 33 202
e 33 203
e 33 208
e 33 212
e 33 218
e 33 221
e 33 235
e 33 237
e 34 36
e 34 38
e 34 39
e 34 45
e 34 46
e 34 48
e 34 57
e 34 58
e 34 59
e 34 62
e 34 66
e 34 68
e 34 70
e 34 73
e 34 78
e 34 83
e 34 88
e 34 93
e 34 104
e 34 110
e 34 120
e 34 126
e 34 128
e 34 129
e 34 132
e 34 142
e 34 147
e 34 150
e 34 152
e 34 155
e 34 158
e 34 166
e 34 170
e 34 178
e 34 183
e 34 186
e 34 196
e 34 199
e 34 223
e 34 224
e 34 228
e 34 239
e 34 249
e 35 36
e 35 38
e 35 39
e 35 42
e 35 43
e 35 44
e 35 45
e 35 47
e 35 56
e 35 59
e 35 62
e 35 63
e 35 64
e 35 65
e 35 66
e 35 74
e 35 75
e 35 85
e 35 87
e 35 88
e 35 100
e 35 103
e 35 105
e 35 121
e 35 123
e 35 124
e 35 128
e 35 129
e 35 144
e 35 152
e 35 153
e 35 158
e 35 160
e 35 163
e 35 175
e 35 178
e 35 188
e 35 190
e 35 197
e 35 198
e 35 200
e 35 202
e 35 203
e 35 205
e 35 216
e 35 225
e 35 230
e 35 233
e 35 235
e 35 236
e 35 240
e 35 243
e 36 37
e 36 39
e 36 56
e 36 60
e 36 64
e 36 68
e 36 76
e 36 84
e 36 85
e 36 92
e 36 99
e 36 107
e 36 123
e 36 127
e 36 129
e 36 137
e 36 140
e 36 156
e 36 158
e 36 159
e 36 163
e 36 167
e 36 175
e 36 186
e 36 206
e 36 208
e 36 238
e 36 242
e 37 47
e 37 53
e 37 56
e 37 58
e 37 59
e 37 63
e 37 64
e 37 67
e 37 71
e 37 78
e 37 82
e 37 90
e 37 94
e 37 105
e 37 112
e 37 113
e 37 115
e 37 117
e 37 119
e 37 143
e 37 149
e 37 153
e 37 155
e 37 156
e 37 158
e 37 170
e 37 172
e 37 178
e 37 192
e 37 197
e 37 198
e 37 203
e 37 206
e 37 239
e 37 247
e 38 44
e 38 54
e 38 57
e 38 64
e 38 68
e 38 70
e 38 71
e 38 73
e 38 86
e 38 90
e 38 94
e 38 106
e 38 107
e 38 110
e 38 112
e 38 115
e 38 125
e 38 128
e 38 138
e 38 144
e 38 146
e 38 148
e 38 154
e 38 162
e 38 172
e 38 176
e 38 181
e 38 182
e 38 186
e 38 187
e 38 193
e 38 198
e 38 199
e 38 207
e 38 210
e 38 211
e 38 214
e 38 229
e 38 233
e 38 244
e 39 40
e 39 52
e 39 55
e 39 56
e 39 75
e 39 77
e 39 83
e 39 89
e 39 91
e 39 94
e 39 95
e 39 96
e 39 101
e 39 110
e 39 112
e 39 113
e 39 119
e 39 128
e 39 140
e 39 154
e 39 156
e 39 157
e 39 162
e 39 179
e 39 182
e 39 191
e 39 215
e 39 217
e 39 228
e 40 48
e 40 49
e 40 57
e 40 61
e 40 62
e 40 71
e 40 73
e 40 74
e 40 79
e 40 81
e 40 86
e 40 87
e 40 89
e 40 90
e 40 92
e 40 102
e 40 105
e 40 109
e 40 114
e 40 116
e 40 122
e 40 137
e 40 141
e 40 148
e 40 174
e 40 178
e 40 180
e 40 181
e 40 182
e 40 183
e 40 188
e 40 190
e 40 192
e 40 198
e 40 202
e 40 212
e 40 218
e 40 225
e 40 233
e 40 251
e 41 43
e 41 47
e 41 52
e 41 54
e 41 59
e 41 60
e 41 61
e 41 69
e 41 73
e 41 99
e 41 100
e 41 102
e 41 107
e 41 111
e 41 115
e 41 119
e 41 128
e 41 134
e 41 138
e 41 155
e 41 181
e 41 182
e 41 183
e 41 190
e 41 207
e 41 210
e 41 233
e 41 241
e 42 43
e 42 45
e 42 47
e 42 48
e 42 50
e 42 51
e 42 53
e 42 55
e 42 66
e 42 70
e 42 71
e 42 73
e 42 80
e 42 81
e 42 82
e 42 83
e 42 90
e 42 94
e 42 95
e 42 96
e 42 98
e 42 101
e 42 102
e 42 111
e 42 120
e 42 123
e 42 125
e 42 128
e 42 131
e 42 132
e 42 135
e 42 139
e 42 147
e 42 153
e 42 162
e 42 163
e 42 177
e 42 188
e 42 191
e 42 193
e 42 208
e 42 215
e 42 219
e 42 220
e 42 221
e 42 230
e 42 232
e 42 240
e 42 244
e 42 247
e 43 50
e 43 51
e 43 52
e 43 53
e 43 56
e 43 57
e 43 60
e 43 61
e 43 66
e 43 69
e 43 79
e 43 86
e 43 87
e 43 90
e 43 91
e 43 95
e 43 98
e 43 102
e 43 108
e 43 117
e 43 133
e 43 135
e 43 139
e 43 141
e 43 142
e 43 144
e 43 146
e 43 170
e 43 173
e 43 174
e 43 175
e 43 183
e 43 184
e 43 201
e 43 226
e 43 227
e 43 241
e 43 242
e 44 49
e 44 53
e 44 61
e 44 71
e 44 78
e 44 80
e 44 82
e 44 85
e 44 87
e 44 93
e 44 105
e 44 107
e 44 121
e 44 123
e 44 128
e 44 131
e 44 151
e 44 152
e 44 154
e 44 162
e 44 166
e 44 167
e 44 174
e 44 178
e 44 195
e 44 201
e 44 209
e 44 214
e 44 241
e 44 244
e 44 245
e 45 46
e 45 48
e 45 55
e 45 58
e 45 59
e 45 62
e 45 63
e 45 65
e 45 67
e 45 70
e 45 71
e 45 85
e 45 90
e 45 96
e 45 109
e 45 112
e 45 114
e 45 116
e 45 126
e 45 134
e 45 144
e 45 145
e 45 161
e 45 163
e 45 164
e 45 178
e 45 195
e 45 196
e 45 205
e 45 231
e 45 232
e 45 239
e 45 251
e 46 48
e 46 53
e 46 54
e 46 55
e 46 56
e 46 68
e 46 69
e 46 74
e 46 77
e 46 78
e 46 79
e 46 83
e 46 88
e 46 96
e 46 108
e 46 114
e 46 131
e 46 143
e 46 182
e 46 185
e 46 200
e 46 204
e 46 208
e 46 217
e 46 238
e 46 239
e 46 244
e 46 250
e 47 51
e 47 52
e 47 54
e 47 62
e 47 64
e 47 65
e 47 76
e 47 77
e 47 91
e 47 96
e 47 100
e 47 113
e 47 130
e 47 133
e 47 140
e 47 150
e 47 169
e 47 184
e 47 186
e 47 187
e 47 194
e 47 212
e 47 213
e 47 218
e 47 224
e 48 49
e 48 60
e 48 67
e 48 70
e 48 71
e 48 74
e 48 77
e 48 81
e 48 86
e 48 89
e 48 98
e 48 103
e 48 112
e 48 116
e 48 121
e 48 139
e 48 158
e 48 182
e 48 196
e 48 204
e 48 224
e 48 232
e 49 51
e 49 53
e 49 58
e 49 61
e 49 64
e 49 65
e 49 66
e 49 67
e 49 74
e 49 76
e 49 80
e 49 87
e 49 98
e 49 124
e 49 126
e 49 129
e 49 135
e 49 146
e 49 150
e 49 156
e 49 159
e 49 185
e 49 187
e 49 207
e 49 211
e 49 217
e 49 221
e 49 232
e 49 234
e 49 247
e 49 248
e 50 56
e 50 68
e 50 81
e 50 82
e 50 85
e 50 93
e 50 96
e 50 106
e 50 111
e 50 130
e 50 134
e 50 158
e 50 159
e 50 160
e 50 161
e 50 189
e 50 191
e 50 199
e 50 202
e 50 208
e 50 229
e 50 242
e 50 247
e 51 54
e 51 55
e 51 56
e 51 58
e 51 59
e 51 60
e 51 70
e 51 85
e 51 90
e 51 109
e 51 122
e 51 134
e 51 142
e 51 146
e 51 147
e 51 160
e 51 165
e 51 167
e 51 187
e 51 192
e 51 196
e 51 199
e 51 204
e 51 239
e 52 55
e 52 63
e 52 66
e 52 70
e 52 75
e 52 76
e 52 77
e 52 79
e 52 81
e 52 86
e 52 94
e 52 99
e 52 100
e 52 103
e 52 108
e 52 110
e 52 114
e 52 115
e 52 119
e 52 132
e 52 133
e 52 141
e 52 143
e 52 145
e 52 149
e 52 154
e 52 167
e 52 170
e 52 171
e 52 176
e 52 180
e 52 198
e 52 200
e 52 204
e 52 209
e 52 213
e 52 219
e 52 242
e 52 250
e 53 58
e 53 60
e 53 65
e 53 67
e 53 81
e 53 82
e 53 84
e 53 98
e 53 124
e 53 126
e 53 163
e 53 170
e 53 177
e 53 249
e 54 57
e 54 58
e 54 68
e 54 71
e 54 78
e 54 90
e 54 109
e 54 124
e 54 130
e 54 135
e 54 156
e 54 158
e 54 161
e 54 175
e 54 181
e 54 193
e 54 207
e 54 212
e 54 225
e 54 227
e 54 230
e 54 237
e 54 238
e 54 241
e 54 248
e 55 58
e 55 64
e 55 66
e 55 70
e 55 75
e 55 102
e 55 111
e 55 112
e 55 116
e 55 132
e 55 146
e 55 164
e 55 189
e 55 191
e 55 192
e 55 215
e 55 230
e 55 231
e 55 234
e 55 237
e 55 239
e 55 245
e 56 60
e 56 62
e 56 66
e 56 69
e 56 70
e 56 82
e 56 89
e 56 90
e 56 105
e 56 108
e 56 117
e 56 125
e 56 128
e 56 150
e 56 162
e 56 167
e 56 198
e 56 223
e 56 224
e 56 245
e 57 63
e 57 64
e 57 68
e 57 70
e 57 72
e 57 79
e 57 85
e 57 93
e 57 94
e 57 118
e 57 122
e 57 128
e 57 129
e 57 137
e 57 142
e 57 154
e 57 156
e 57 164
e 57 176
e 57 182
e 57 196
e 57 200
e 57 206
e 57 216
e 57 219
e 57 238
e 57 243
e 58 72
e 58 81
e 58 82
e 58 84
e 58 91
e 58 107
e 58 114
e 58 115
e 58 118
e 58 124
e 58 127
e 58 144
e 58 157
e 58 166
e 58 168
e 58 175
e 58 176
e 58 179
e 58 188
e 58 191
e 58 193
e 58 199
e 58 204
e 58 226
e 58 232
e 58 238
e 58 248
e 59 71
e 59 73
e 59 84
e 59 89
e 59 95
e 59 117
e 59 118
e 59 119
e 59 124
e 59 130
e 59 138
e 59 161
e 59 178
e 59 185
e 59 188
e 59 194
e 59 195
e 59 197
e 59 219
e 59 221
e 59 222
e 59 225
e 59 233
e 60 66
e 60 72
e 60 75
e 60 78
e 60 80
e 60 92
e 60 94
e 60 121
e 60 123
e 60 131
e 60 137
e 60 138
e 60 155
e 60 157
e 60 188
e 60 220
e 60 241
e 61 64
e 61 73
e 61 77
e 61 88
e 61 90
e 61 97
e 61 99
e 61 106
e 61 110
e 61 113
e 61 127
e 61 133
e 61 135
e 61 145
e 61 153
e 61 160
e 61 168
e 61 173
e 61 180
e 61 185
e 61 187
e 61 188
e 61 207
e 61 217
e 61 243
e 62 63
e 62 66
e 62 67
e 62 75
e 62 89
e 62 92
e 62 95
e 62 102
e 62 113
e 62 114
e 62 122
e 62 124
e 62 126
e 62 162
e 62 183
e 62 200
e 62 206
e 62 208
e 62 210
e 62 222
e 62 225
e 63 67
e 63 88
e 63 97
e 63 109
e 63 118
e 63 188
e 63 193
e 63 242
e 64 67
e 64 68
e 64 77
e 64 81
e 64 82
e 64 86
e 64 87
e 64 95
e 64 96
e 64 113
e 64 116
e 64 117
e 64 118
e 64 122
e 64 135
e 64 136
e 64 139
e 64 142
e 64 154
e 64 156
e 64 162
e 64 165
e 64 168
e 64 171
e 64 184
e 64 185
e 64 203
e 64 204
e 64 206
e 64 208
e 64 213
e 64 217
e 64 249
e 65 69
e 65 73
e 65 74
e 65 77
e 65 81
e 65 97
e 65 104
e 65 117
e 65 120
e 65 127
e 65 138
e 65 141
e 65 153
e 65 158
e 65 179
e 65 184
e 65 186
e 65 189
e 65 190
e 65 195
e 65 196
e 65 205
e 65 209
e 65 211
e 65 226
e 65 230
e 65 248
e 66 84
e 66 89
e 66 90
e 66 108
e 66 111
e 66 117
e 66 121
e 66 125
e 66 128
e 66 136
e 66 140
e 66 157
e 66 163
e 66 167
e 66 168
e 66 174
e 66 177
e 66 185
e 66 191
e 66 206
e 66 215
e 66 216
e 66 231
e 66 232
e 66 242
e 67 68
e 67 72
e 67 83
e 67 85
e 67 98
e 67 100
e 67 111
e 67 116
e 67 117
e 67 130
e 67 143
e 67 147
e 67 150
e 67 164
e 67 170
e 67 195
e 67 216
e 67 223
e 67 229
e 67 238
e 67 246
e 67 247
e 67 248
e 68 76
e 68 116
e 68 143
e 68 147
e 68 159
e 68 169
e 68 211
e 68 250
e 69 75
e 69 95
e 69 163
e 69 171
e 69 192
e 69 194
e 69 209
e 69 210
e 69 216
e 70 72
e 70 76
e 70 83
e 70 100
e 70 114
e 70 121
e 70 124
e 70 169
e 70 182
e 70 189
e 70 203
e 70 243
e 70 249
e 71 89
e 71 104
e 71 105
e 71 113
e 71 120
e 71 125
e 71 132
e 71 143
e 71 147
e 71 159
e 71 164
e 71 173
e 71 179
e 71 181
e 71 224
e 71 226
e 72 73
e 72 75
e 72 76
e 72 78
e 72 80
e 72 85
e 72 93
e 72 98
e 72 108
e 72 115
e 72 119
e 72 127
e 72 130
e 72 134
e 72 148
e 72 150
e 72 154
e 72 162
e 72 168
e 72 179
e 72 180
e 72 182
e 72 185
e 72 190
e 72 197
e 72 202
e 72 213
e 72 228
e 72 239
e 72 240
e 72 244
e 72 250
e 73 74
e 73 75
e 73 79
e 73 86
e 73 87
e 73 103
e 73 116
e 73 120
e 73 122
e 73 136
e 73 147
e 73 164
e 73 166
e 73 171
e 73 180
e 73 183
e 73 197
e 73 209
e 73 211
e 73 220
e 74 84
e 74 92
e 74 94
e 74 97
e 74 99
e 74 108
e 74 111
e 74 112
e 74 135
e 74 137
e 74 139
e 74 152
e 74 154
e 74 165
e 74 192
e 74 197
e 74 222
e 74 229
e 74 244
e 74 245
e 74 251
e 75 104
e 75 125
e 75 137
e 75 147
e 75 174
e 75 184
e 75 186
e 75 198
e 75 208
e 75 220
e 75 229
e 75 235
e 75 242
e 76 94
e 76 99
e 76 115
e 76 127
e 76 130
e 76 147
e 76 160
e 76 194
e 76 197
e 76 220
e 76 241
e 77 93
e 77 96
e 77 98
e 77 102
e 77 105
e 77 112
e 77 123
e 77 135
e 77 158
e 77 159
e 77 167
e 77 173
e 77 236
e 78 116
e 78 124
e 78 132
e 78 156
e 78 160
e 78 173
e 78 183
e 78 185
e 78 187
e 78 221
e 78 225
e 78 237
e 78 238
e 79 82
e 79 84
e 79 92
e 79 95
e 79 100
e 79 102
e 79 103
e 79 106
e 79 114
e 79 120
e 79 155
e 79 158
e 79 173
e 79 175
e 79 177
e 79 194
e 79 223
e 79 230
e 79 242
e 80 88
e 80 107
e 80 109
e 80 118
e 80 136
e 80 148
e 80 168
e 80 176
e 80 200
e 80 210
e 80 231
e 80 245
e 81 87
e 81 94
e 81 101
e 81 103
e 81 110
e 81 112
e 81 133
e 81 149
e 81 155
e 81 195
e 81 203
e 81 211
e 81 224
e 81 229
e 82 106
e 82 110
e 82 118
e 82 120
e 82 164
e 82 165
e 82 168
e 82 176
e 82 178
e 82 196
e 82 204
e 82 218
e 82 235
e 83 85
e 83 87
e 83 88
e 83 94
e 83 95
e 83 104
e 83 114
e 83 118
e 83 131
e 83 145
e 83 146
e 83 177
e 83 186
e 83 194
e 83 201
e 83 228
e 84 97
e 84 109
e 84 115
e 84 130
e 84 132
e 84 134
e 84 135
e 84 138
e 84 181
e 84 191
e 84 209
e 84 245
e 85 95
e 85 101
e 85 110
e 85 125
e 85 153
e 85 154
e 85 157
e 85 163
e 85 178
e 85 187
e 85 193
e 85 203
e 85 211
e 85 223
e 85 234
e 86 91
e 86 97
e 86 125
e 86 145
e 86 154
e 86 157
e 86 192
e 86 217
e 86 219
e 86 230
e 86 237
e 86 240
e 87 92
e 87 99
e 87 108
e 87 117
e 87 118
e 87 121
e 87 123
e 87 132
e 87 142
e 87 149
e 87 176
e 87 188
e 87 189
e 87 190
e 87 215
e 87 218
e 87 226
e 87 227
e 88 93
e 88 95
e 88 107
e 88 128
e 88 160
e 88 163
e 88 169
e 89 93
e 89 95
e 89 102
e 89 106
e 89 134
e 89 154
e 89 163
e 89 164
e 89 166
e 89 172
e 89 173
e 89 174
e 89 175
e 89 176
e 89 199
e 89 200
e 89 203
e 89 214
e 89 221
e 89 223
e 89 227
e 89 228
e 90 108
e 90 127
e 90 138
e 90 153
e 90 172
e 90 181
e 90 193
e 90 195
e 90 245
e 90 249
e 91 93
e 91 101
e 91 104
e 91 116
e 91 120
e 91 122
e 91 131
e 91 134
e 91 135
e 91 136
e 91 142
e 91 175
e 91 193
e 91 236
e 92 102
e 92 105
e 92 106
e 92 114
e 92 116
e 92 122
e 92 142
e 92 151
e 92 152
e 92 169
e 92 186
e 92 194
e 92 201
e 92 212
e 92 222
e 92 225
e 92 233
e 92 236
e 93 104
e 93 109
e 93 113
e 93 114
e 93 128
e 93 145
e 93 172
e 93 229
e 94 132
e 94 133
e 94 141
e 94 145
e 94 149
e 94 161
e 94 172
e 94 194
e 94 246
e 94 250
e 95 97
e 95 101
e 95 140
e 95 150
e 95 161
e 95 165
e 95 166
e 95 181
e 95 186
e 95 206
e 95 212
e 95 219
e 96 101
e 96 119
e 96 126
e 96 151
e 96 154
e 96 155
e 96 164
e 96 189
e 96 196
e 96 206
e 96 217
e 96 238
e 96 246
e 97 116
e 97 145
e 97 170
e 97 171
e 97 178
e 97 184
e 97 198
e 97 200
e 97 215
e 97 219
e 97 221
e 97 234
e 98 100
e 98 110
e 98 115
e 98 119
e 98 122
e 98 129
e 98 137
e 98 138
e 98 140
e 98 152
e 98 171
e 98 202
e 98 206
e 98 210
e 98 228
e 98 230
e 99 103
e 99 104
e 99 143
e 99 245
e 100 130
e 100 138
e 100 145
e 100 161
e 100 201
e 100 216
e 100 244
e 101 105
e 101 134
e 101 136
e 101 144
e 101 160
e 101 169
e 101 178
e 101 179
e 101 183
e 101 189
e 101 237
e 102 140
e 102 189
e 103 137
e 103 165
e 103 176
e 103 180
e 103 183
e 103 189
e 103 199
e 103 215
e 103 217
e 103 222
e 103 226
e 103 237
e 103 240
e 104 108
e 104 119
e 104 130
e 104 133
e 104 144
e 104 149
e 104 151
e 104 153
e 104 154
e 104 171
e 104 177
e 104 182
e 104 213
e 105 118
e 105 197
e 105 213
e 105 234
e 106 132
e 106 144
e 106 146
e 106 149
e 106 165
e 106 177
e 106 192
e 106 203
e 106 207
e 106 208
e 106 229
e 106 243
e 107 125
e 107 132
e 107 133
e 107 148
e 107 153
e 107 157
e 107 168
e 107 179
e 107 189
e 107 197
e 107 202
e 107 205
e 107 227
e 107 233
e 107 242
e 108 125
e 108 134
e 108 136
e 108 142
e 108 148
e 108 153
e 108 156
e 108 184
e 108 195
e 108 196
e 108 201
e 108 205
e 108 210
e 108 212
e 108 216
e 108 248
e 109 117
e 109 119
e 109 133
e 109 167
e 109 172
e 109 175
e 109 211
e 109 227
e 109 240
e 109 251
e 110 112
e 110 121
e 110 129
e 110 136
e 110 140
e 110 228
e 110 231
e 110 234
e 111 119
e 111 121
e 111 131
e 111 144
e 111 173
e 111 187
e 111 206
e 111 209
e 111 212
e 111 216
e 111 234
e 111 235
e 111 247
e 112 165
e 112 172
e 112 182
e 112 187
e 112 197
e 112 201
e 112 226
e 112 247
e 113 127
e 113 130
e 113 227
e 113 232
e 114 115
e 114 123
e 114 140
e 114 199
e 114 207
e 114 216
e 114 221
e 115 148
e 115 157
e 115 177
e 115 207
e 115 218
e 115 227
e 116 121
e 116 124
e 116 126
e 116 136
e 116 179
e 116 181
e 116 185
e 116 194
e 116 202
e 116 221
e 116 235
e 116 242
e 117 139
e 117 155
e 117 158
e 117 168
e 117 170
e 117 172
e 117 174
e 117 196
e 117 221
e 117 225
e 117 231
e 117 250
e 118 126
e 118 133
e 118 151
e 118 180
e 118 247
e 118 251
e 119 139
e 119 169
e 119 183
e 119 203
e 120 136
e 120 142
e 120 143
e 120 145
e 120 216
e 121 138
e 121 139
e 121 140
e 121 147
e 121 155
e 121 187
e 122 127
e 122 130
e 122 141
e 122 143
e 122 152
e 122 161
e 122 168
e 122 193
e 122 209
e 122 214
e 122 215
e 122 217
e 122 222
e 122 240
e 123 127
e 123 131
e 123 149
e 123 169
e 123 179
e 123 190
e 124 140
e 124 146
e 124 147
e 124 156
e 124 157
e 124 195
e 124 213
e 124 247
e 124 249
e 125 155
e 125 159
e 125 160
e 125 167
e 125 170
e 125 180
e 125 183
e 125 202
e 125 211
e 125 218
e 125 226
e 125 231
e 126 151
e 126 209
e 126 215
e 127 136
e 127 139
e 127 150
e 127 170
e 127 205
e 127 214
e 127 245
e 127 249
e 127 250
e 128 210
e 128 222
e 128 230
e 128 241
e 128 251
e 129 131
e 129 163
e 129 181
e 129 189
e 129 218
e 129 219
e 129 225
e 129 237
e 130 138
e 130 159
e 130 161
e 130 164
e 130 172
e 130 191
e 130 192
e 131 148
e 131 153
e 131 221
e 132 133
e 132 146
e 132 151
e 132 173
e 132 183
e 132 184
e 132 193
e 133 155
e 133 198
e 133 229
e 133 243
e 134 136
e 134 139
e 134 150
e 134 165
e 134 166
e 134 170
e 134 184
e 134 192
e 134 203
e 134 225
e 134 236
e 135 139
e 135 198
e 135 212
e 136 152
e 136 155
e 136 197
e 136 228
e 137 144
e 137 168
e 137 175
e 137 177
e 137 201
e 137 243
e 137 245
e 137 246
e 138 139
e 138 172
e 138 181
e 138 190
e 138 209
e 138 247
e 139 144
e 139 209
e 139 239
e 140 149
e 140 162
e 140 164
e 140 173
e 140 178
e 140 180
e 140 182
e 140 187
e 140 192
e 140 193
e 140 250
e 141 149
e 141 171
e 141 202
e 141 223
e 141 226
e 141 228
e 141 234
e 142 148
e 142 179
e 142 200
e 142 201
e 142 211
e 142 217
e 142 218
e 142 251
e 143 170
e 143 173
e 143 211
e 143 215
e 143 228
e 143 237
e 144 208
e 144 228
e 144 230
e 144 234
e 144 241
e 145 167
e 145 189
e 145 196
e 145 210
e 145 219
e 145 223
e 145 225
e 145 242
e 146 152
e 146 156
e 146 165
e 146 192
e 146 210
e 147 225
e 147 245
e 148 193
e 148 214
e 148 215
e 148 221
e 148 234
e 149 190
e 149 222
e 150 153
e 150 198
e 150 200
e 150 202
e 150 251
e 151 184
e 151 195
e 151 216
e 151 229
e 151 237
e 152 155
e 152 179
e 152 197
e 152 208
e 152 246
e 152 248
e 153 217
e 153 227
e 153 233
e 154 171
e 154 185
e 154 191
e 154 223
e 154 233
e 154 237
e 154 241
e 154 250
e 155 179
e 155 197
e 155 201
e 155 217
e 155 224
e 155 244
e 156 171
e 156 197
e 156 201
e 156 218
e 156 225
e 157 184
e 157 224
e 158 160
e 158 169
e 158 172
e 158 187
e 158 189
e 158 213
e 158 231
e 158 233
e 158 248
e 159 177
e 159 204
e 159 233
e 159 242
e 160 174
e 160 179
e 160 183
e 160 199
e 160 220
e 160 237
e 161 202
e 161 235
e 162 200
e 162 231
e 162 243
e 163 194
e 163 204
e 163 211
e 163 248
e 164 209
e 164 224
e 164 245
e 165 168
e 165 173
e 165 174
e 165 191
e 165 207
e 165 209
e 165 210
e 165 238
e 166 172
e 166 214
e 166 220
e 166 222
e 166 232
e 166 240
e 166 243
e 167 217
e 167 248
e 168 184
e 168 223
e 168 234
e 168 238
e 168 244
e 168 245
e 168 246
e 168 249
e 169 175
e 169 186
e 169 188
e 169 195
e 169 212
e 170 190
e 170 200
e 170 223
e 170 226
e 170 239
e 170 240
e 170 242
e 171 215
e 171 251
e 172 186
e 172 219
e 172 223
e 172 229
e 172 241
e 173 183
e 173 193
e 173 206
e 173 246
e 174 191
e 174 204
e 174 212
e 174 220
e 174 239
e 175 212
e 175 236
e 175 243
e 175 249
e 176 240
e 177 205
e 177 219
e 178 187
e 178 190
e 178 209
e 178 235
e 179 180
e 179 184
e 179 187
e 179 226
e 179 227
e 179 236
e 179 239
e 179 245
e 180 188
e 180 213
e 180 219
e 180 232
e 181 194
e 182 198
e 182 214
e 183 219
e 183 233
e 183 246
e 184 185
e 184 206
e 184 217
e 185 186
e 185 215
e 186 195
e 186 206
e 186 207
e 186 214
e 186 236
e 187 196
e 187 213
e 187 220
e 187 243
e 188 213
e 188 232
e 190 218
e 190 221
e 190 232
e 191 219
e 191 224
e 191 225
e 192 205
e 192 230
e 195 220
e 195 239
e 195 251
e 196 231
e 197 199
e 197 200
e 197 217
e 197 248
e 198 240
e 198 249
e 199 244
e 200 224
e 200 240
e 201 247
e 202 207
e 202 213
e 202 220
e 203 205
e 203 234
e 203 248
e 204 231
e 204 232
e 204 249
e 205 234
e 206 227
e 207 222
e 208 240
e 209 210
e 210 218
e 210 221
e 210 224
e 212 222
e 212 226
e 213 227
e 214 218
e 215 225
e 215 242
e 216 222
e 216 237
e 216 244
e 218 249
e 221 230
e 222 230
e 222 240
e 223 225
e 224 235
e 224 236
e 225 234
e 225 246
e 227 246
e 229 230
e 229 236
e 230 233
e 230 244
e 230 248
e 231 243
e 231 250
e 235 239
e 236 246
e 236 249
e 241 242
